************************************************************************
file with basedata            : n/a
initial value random generator: n/a
************************************************************************
projects                      :  1
jobs (incl. supersource/sink ):  32
horizon                       :  181
RESOURCES
  - renewable                 :  4   R
  - nonrenewable              :  0   N
  - doubly constrained        :  0   D
************************************************************************
PROJECT INFORMATION:
pronr.  #jobs rel.date duedate tardcost  MPM-Time
    1     30      0       48        7       48
************************************************************************
PRECEDENCE RELATIONS:
jobnr.    #modes  #successors   successors
   1        1          3           2   3   4
   2        1          1          25
   3        1          3           5   6  13
   4        1          3           9  14  15
   5        1          3           7   8  16
   6        1          1          31
   7        1          3          11  17  28
   8        1          3          12  18  30
   9        1          2          10  27
  10        1          2          12  17
  11        1          1          14
  12        1          1          24
  13        1          1          30
  14        1          3          21  22  26
  15        1          1          20
  16        1          1          19
  17        1          1          21
  18        1          1          23
  19        1          1          31
  20        1          1          22
  21        1          1          25
  22        1          1          29
  23        1          1          27
  24        1          2          25  31
  25        1          1          29
  26        1          1          27
  27        1          1          29
  28        1          1          30
  29        1          1          32
  30        1          1          32
  31        1          1          32
  32        1          0        
************************************************************************
REQUESTS/DURATIONS:
jobnr. mode duration  R 1  R 2  R 3  R 4
------------------------------------------------------------------------
  1      1     0    
  2      1     9       4   4   4   4   4   0   4   0   0
                       2   2   2   2   2   0   2   0   0
                       1   1   1   1   1   0   1   0   0
                       1   1   1   1   1   0   1   0   0
  3      1     5       0   0   0   5   0
                       0   0   0   4   0
                       0   0   0   8   0
                       0   0   0  10   0
  4      1    10       9   9   9   9   9   0   9   9   9   9
                       6   6   6   6   6   0   6   6   6   6
                       7   7   7   7   7   0   7   7   7   7
                       6   6   6   6   6   0   6   6   6   6
  5      1     4       3   3   3   3
                       4   4   4   4
                       3   3   3   3
                       4   4   4   4
  6      1     7       1   1   1   1   1   1   0
                       6   6   6   6   6   6   0
                       9   9   9   9   9   9   0
                      10  10  10  10  10  10   0
  7      1     9       6   6   6   0   6   6   0   6   6
                       8   8   8   0   8   8   0   8   8
                       8   8   8   0   8   8   0   8   8
                       2   2   2   0   2   2   0   2   2
  8      1     8       4   4   4   4   4   4   4   4
                       9   9   9   9   9   9   9   9
                       9   9   9   9   9   9   9   9
                       7   7   7   7   7   7   7   7
  9      1     8       0   9   9   9   9   0   9   0
                       0   5   5   5   5   0   5   0
                       0   8   8   8   8   0   8   0
                       0   4   4   4   4   0   4   0
 10      1    10       4   4   4   4   4   0   4   4   0   4
                       1   1   1   1   1   0   1   1   0   1
                       4   4   4   4   4   0   4   4   0   4
                       9   9   9   9   9   0   9   9   0   9
 11      1     9       6   6   6   6   6   0   6   0   6
                       9   9   9   9   9   0   9   0   9
                       5   5   5   5   5   0   5   0   5
                       2   2   2   2   2   0   2   0   2
 12      1     2       5   5
                       5   5
                       2   2
                       8   8
 13      1     2       2   2
                       8   8
                       8   8
                       4   4
 14      1     1       5
                       3
                       7
                       8
 15      1     2       7   0
                       9   0
                       9   0
                      10   0
 16      1     5       2   0   2   2   2
                       2   0   2   2   2
                       8   0   8   8   8
                       1   0   1   1   1
 17      1     5       2   2   2   0   2
                       4   4   4   0   4
                       7   7   7   0   7
                      10  10  10   0  10
 18      1     3       4   4   0
                       4   4   0
                       3   3   0
                      10  10   0
 19      1     4       2   2   2   2
                       2   2   2   2
                      10  10  10  10
                       2   2   2   2
 20      1     3       0   4   0
                       0   5   0
                       0   3   0
                       0  10   0
 21      1     8       3   0   3   3   0   3   3   3
                       1   0   1   1   0   1   1   1
                       9   0   9   9   0   9   9   9
                       7   0   7   7   0   7   7   7
 22      1     6       1   1   1   1   1   0
                       7   7   7   7   7   0
                      10  10  10  10  10   0
                       1   1   1   1   1   0
 23      1    10       1   1   1   0   1   1   1   1   1   1
                       3   3   3   0   3   3   3   3   3   3
                       1   1   1   0   1   1   1   1   1   1
                      10  10  10   0  10  10  10  10  10  10
 24      1     3       9   9   9
                       4   4   4
                       7   7   7
                       5   5   5
 25      1     3      10  10  10
                       9   9   9
                       1   1   1
                       2   2   2
 26      1     9       7   7   7   7   0   7   7   7   7
                       3   3   3   3   0   3   3   3   3
                       3   3   3   3   0   3   3   3   3
                       5   5   5   5   0   5   5   5   5
 27      1     4       0   8   8   8
                       0   1   1   1
                       0   2   2   2
                       0   9   9   9
 28      1    10       6   6   6   0   0   0   6   6   6   6
                       6   6   6   0   0   0   6   6   6   6
                       1   1   1   0   0   0   1   1   1   1
                       5   5   5   0   0   0   5   5   5   5
 29      1     4       8   8   8   8
                       4   4   4   4
                       4   4   4   4
                       4   4   4   4
 30      1     9       0   8   8   8   8   8   0   0   0
                       0   5   5   5   5   5   0   0   0
                       0   3   3   3   3   3   0   0   0
                       0   9   9   9   9   9   0   0   0
 31      1     9       0   7   7   0   7   7   7   7   7
                       0   2   2   0   2   2   2   2   2
                       0   7   7   0   7   7   7   7   7
                       0   7   7   0   7   7   7   7   7
 32      1     0    
************************************************************************
RESOURCEAVAILABILITIES:
  R 1  R 2  R 3  R 4

  29  29  29  29  29  29  29  29  29   0  29   0  29  29  29  29  29  29  29  29  29  29  29  29   0  29  29  29  29   0  29   0   0  29  29  29  29   0  29  29  29   0  29   0  29  29  29  29  29  29  29  29  29  29  29  29  29  29  29  29  29  29   0  29  29   0   0  29  29   0  29  29  29  29  29  29  29  29  29  29   0  29   0  29  29  29  29  29  29   0  29  29  29  29  29  29   0  29  29  29   0  29  29  29  29  29  29  29  29   0  29   0   0  29  29  29  29  29   0  29  29  29  29   0  29  29  29  29  29  29  29  29   0  29  29  29  29  29  29  29  29  29  29  29  29   0  29  29  29   0  29  29  29  29  29  29  29  29  29  29  29  29  29  29   0  29  29  29  29  29  29  29  29  29  29  29  29  29  29  29  29

  39  39  39  39  39  39  39  39  39   0  39   0  39  39  39  39  39  39  39  39  39  39  39  39   0  39  39  39  39   0  39   0   0  39  39  39  39   0  39  39  39   0  39   0  39  39  39  39  39  39  39  39  39  39  39  39  39  39  39  39  39  39   0  39  39   0   0  39  39   0  39  39  39  39  39  39  39  39  39  39   0  39   0  39  39  39  39  39  39   0  39  39  39  39  39  39   0  39  39  39   0  39  39  39  39  39  39  39  39   0  39   0   0  39  39  39  39  39   0  39  39  39  39   0  39  39  39  39  39  39  39  39   0  39  39  39  39  39  39  39  39  39  39  39  39   0  39  39  39   0  39  39  39  39  39  39  39  39  39  39  39  39  39  39   0  39  39  39  39  39  39  39  39  39  39  39  39  39  39  39  39

  51  51  51  51  51  51  51  51  51   0  51   0  51  51  51  51  51  51  51  51  51  51  51  51   0  51  51  51  51   0  51   0   0  51  51  51  51   0  51  51  51   0  51   0  51  51  51  51  51  51  51  51  51  51  51  51  51  51  51  51  51  51   0  51  51   0   0  51  51   0  51  51  51  51  51  51  51  51  51  51   0  51   0  51  51  51  51  51  51   0  51  51  51  51  51  51   0  51  51  51   0  51  51  51  51  51  51  51  51   0  51   0   0  51  51  51  51  51   0  51  51  51  51   0  51  51  51  51  51  51  51  51   0  51  51  51  51  51  51  51  51  51  51  51  51   0  51  51  51   0  51  51  51  51  51  51  51  51  51  51  51  51  51  51   0  51  51  51  51  51  51  51  51  51  51  51  51  51  51  51  51

  43  43  43  43  43  43  43  43  43   0  43   0  43  43  43  43  43  43  43  43  43  43  43  43   0  43  43  43  43   0  43   0   0  43  43  43  43   0  43  43  43   0  43   0  43  43  43  43  43  43  43  43  43  43  43  43  43  43  43  43  43  43   0  43  43   0   0  43  43   0  43  43  43  43  43  43  43  43  43  43   0  43   0  43  43  43  43  43  43   0  43  43  43  43  43  43   0  43  43  43   0  43  43  43  43  43  43  43  43   0  43   0   0  43  43  43  43  43   0  43  43  43  43   0  43  43  43  43  43  43  43  43   0  43  43  43  43  43  43  43  43  43  43  43  43   0  43  43  43   0  43  43  43  43  43  43  43  43  43  43  43  43  43  43   0  43  43  43  43  43  43  43  43  43  43  43  43  43  43  43  43

************************************************************************
